Minimize
	value: tt

Subject to
tt + 500 s_1_1 > 0
tt - t_1_1 - 503.000000 s_1_1 + 3.000000 s_1_6 > -484.861478
tt + 500 s_2_1 > 0
tt - t_2_1 - 503.000000 s_2_1 + 3.000000 s_2_6 > -486.934000
tt + 500 s_1_2 > 0
tt - t_1_2 - 503.000000 s_1_2 + 3.000000 s_1_7 > -482.738178
tt + 500 s_2_2 > 0
tt - t_2_2 - 503.000000 s_2_2 + 3.000000 s_2_7 > -481.453000
tt + 500 s_1_3 > 0
tt - t_1_3 - 503.000000 s_1_3 + 3.000000 s_1_7 > -472.720600
tt + 500 s_2_3 > 0
tt - t_2_3 - 503.000000 s_2_3 + 3.000000 s_2_7 > -475.044000
tt + 500 s_1_4 > 0
tt - t_1_4 - 512.000000 s_1_4 + 12.000000 s_1_3 > -485.843000
tt + 500 s_2_4 > 0
tt - t_2_4 - 512.000000 s_2_4 + 12.000000 s_2_3 > -482.891000
tt + 500 s_1_5 > 0
tt - t_1_5 - 512.000000 s_1_5 + 12.000000 s_1_7 > -486.628878
tt + 500 s_2_5 > 0
tt - t_2_5 - 512.000000 s_2_5 + 12.000000 s_2_7 > -487.453000
tt + 500 s_1_6 > 0
tt - t_1_6 - 500.000000 s_1_6 > -469.495422
tt + 500 s_2_6 > 0
tt - t_2_6 - 500.000000 s_2_6 > -451.802000
tt + 500 s_1_7 > 0
tt - t_1_7 - 500.000000 s_1_7 > -459.692600
tt + 500 s_2_7 > 0
tt - t_2_7 - 500.000000 s_2_7 > -485.597000
tt + 500 s_1_8 > 0
tt - t_1_8 - 575.000000 s_1_8 + 75.000000 s_1_2 > -499.334300
tt + 500 s_2_8 > 0
tt - t_2_8 - 575.000000 s_2_8 + 75.000000 s_2_2 > -493.419000
s_1_1 + s_2_1  = 1
s_1_2 + s_2_2  = 1
s_1_3 + s_2_3  = 1
s_1_4 + s_2_4  = 1
s_1_5 + s_2_5  = 1
s_1_6 + s_2_6  = 1
s_1_7 + s_2_7  = 1
s_1_8 + s_2_8  = 1
t_1_1 - t_1_2 + 500.000000 u_1_1_2 - 3.000000 s_1_2 + 3.000000 s_1_7 > 17.261822
t_1_2 - t_1_1 - 500.000000 u_1_1_2 > -484.861478
t_2_1 - t_2_2 + 500.000000 u_2_1_2 - 3.000000 s_2_2 + 3.000000 s_2_7 > 18.547000
t_2_2 - t_2_1 - 500.000000 u_2_1_2 > -486.934000
t_1_1 - t_1_3 + 500.000000 u_1_1_3 - 3.000000 s_1_3 + 3.000000 s_1_7 > 27.279400
t_1_3 - t_1_1 - 500.000000 u_1_1_3 > -484.861478
t_2_1 - t_2_3 + 500.000000 u_2_1_3 - 3.000000 s_2_3 + 3.000000 s_2_7 > 24.956000
t_2_3 - t_2_1 - 500.000000 u_2_1_3 > -486.934000
t_1_1 - t_1_4 + 500.000000 u_1_1_4 - 6.000000 s_1_4 + 6.000000 s_1_3 > 14.157000
t_1_4 - t_1_1 - 500.000000 u_1_1_4 > -484.861478
t_2_1 - t_2_4 + 500.000000 u_2_1_4 - 6.000000 s_2_4 + 6.000000 s_2_3 > 17.109000
t_2_4 - t_2_1 - 500.000000 u_2_1_4 > -486.934000
t_1_1 - t_1_5 + 500.000000 u_1_1_5 - 6.000000 s_1_5 + 6.000000 s_1_7 > 13.371122
t_1_5 - t_1_1 - 500.000000 u_1_1_5 > -484.861478
t_2_1 - t_2_5 + 500.000000 u_2_1_5 - 6.000000 s_2_5 + 6.000000 s_2_7 > 12.547000
t_2_5 - t_2_1 - 500.000000 u_2_1_5 > -486.934000
t_1_1 - t_1_6 - 500.000000 s_1_6 > -466.495422
t_1_1 - t_2_6 - 500.000000 s_2_6 > -448.802000
t_2_1 - t_1_6 - 500.000000 s_1_6 > -466.495422
t_2_1 - t_2_6 - 500.000000 s_2_6 > -448.802000
t_1_1 - t_1_7 + 500.000000 u_1_1_7 > 40.307400
t_1_7 - t_1_1 - 500.000000 u_1_1_7 > -484.861478
t_2_1 - t_2_7 + 500.000000 u_2_1_7 > 14.403000
t_2_7 - t_2_1 - 500.000000 u_2_1_7 > -486.934000
t_1_8 - t_1_1 - 500.000000 s_1_1 > -481.861478
t_1_8 - t_2_1 - 500.000000 s_2_1 > -483.934000
t_2_8 - t_1_1 - 500.000000 s_1_1 > -481.861478
t_2_8 - t_2_1 - 500.000000 s_2_1 > -483.934000
t_1_2 - t_1_1 + 500.000000 u_1_2_1 - 3.000000 s_1_1 + 3.000000 s_1_6 > 15.138522
t_1_1 - t_1_2 - 500.000000 u_1_2_1 > -482.738178
t_2_2 - t_2_1 + 500.000000 u_2_2_1 - 3.000000 s_2_1 + 3.000000 s_2_6 > 13.066000
t_2_1 - t_2_2 - 500.000000 u_2_2_1 > -481.453000
t_1_2 - t_1_3 + 500.000000 u_1_2_3 - 3.000000 s_1_3 + 3.000000 s_1_7 > 27.279400
t_1_3 - t_1_2 - 500.000000 u_1_2_3 > -482.738178
t_2_2 - t_2_3 + 500.000000 u_2_2_3 - 3.000000 s_2_3 + 3.000000 s_2_7 > 24.956000
t_2_3 - t_2_2 - 500.000000 u_2_2_3 > -481.453000
t_1_2 - t_1_4 + 500.000000 u_1_2_4 - 6.000000 s_1_4 + 6.000000 s_1_3 > 14.157000
t_1_4 - t_1_2 - 500.000000 u_1_2_4 > -482.738178
t_2_2 - t_2_4 + 500.000000 u_2_2_4 - 6.000000 s_2_4 + 6.000000 s_2_3 > 17.109000
t_2_4 - t_2_2 - 500.000000 u_2_2_4 > -481.453000
t_1_2 - t_1_5 + 500.000000 u_1_2_5 - 6.000000 s_1_5 + 6.000000 s_1_7 > 13.371122
t_1_5 - t_1_2 - 500.000000 u_1_2_5 > -482.738178
t_2_2 - t_2_5 + 500.000000 u_2_2_5 - 6.000000 s_2_5 + 6.000000 s_2_7 > 12.547000
t_2_5 - t_2_2 - 500.000000 u_2_2_5 > -481.453000
t_1_2 - t_1_6 + 500.000000 u_1_2_6 > 30.504578
t_1_6 - t_1_2 - 500.000000 u_1_2_6 > -482.738178
t_2_2 - t_2_6 + 500.000000 u_2_2_6 > 48.198000
t_2_6 - t_2_2 - 500.000000 u_2_2_6 > -481.453000
t_1_2 - t_1_7 - 500.000000 s_1_7 > -456.692600
t_1_2 - t_2_7 - 500.000000 s_2_7 > -482.597000
t_2_2 - t_1_7 - 500.000000 s_1_7 > -456.692600
t_2_2 - t_2_7 - 500.000000 s_2_7 > -482.597000
t_1_8 - t_1_2 - 500.000000 s_1_2 > -479.738178
t_1_8 - t_2_2 - 500.000000 s_2_2 > -478.453000
t_2_8 - t_1_2 - 500.000000 s_1_2 > -479.738178
t_2_8 - t_2_2 - 500.000000 s_2_2 > -478.453000
t_1_3 - t_1_1 + 500.000000 u_1_3_1 - 3.000000 s_1_1 + 3.000000 s_1_6 > 15.138522
t_1_1 - t_1_3 - 500.000000 u_1_3_1 > -472.720600
t_2_3 - t_2_1 + 500.000000 u_2_3_1 - 3.000000 s_2_1 + 3.000000 s_2_6 > 13.066000
t_2_1 - t_2_3 - 500.000000 u_2_3_1 > -475.044000
t_1_3 - t_1_2 + 500.000000 u_1_3_2 - 3.000000 s_1_2 + 3.000000 s_1_7 > 17.261822
t_1_2 - t_1_3 - 500.000000 u_1_3_2 > -472.720600
t_2_3 - t_2_2 + 500.000000 u_2_3_2 - 3.000000 s_2_2 + 3.000000 s_2_7 > 18.547000
t_2_2 - t_2_3 - 500.000000 u_2_3_2 > -475.044000
t_1_4 - t_1_3 - 500.000000 s_1_3 > -469.720600
t_1_4 - t_2_3 - 500.000000 s_2_3 > -472.044000
t_2_4 - t_1_3 - 500.000000 s_1_3 > -469.720600
t_2_4 - t_2_3 - 500.000000 s_2_3 > -472.044000
t_1_3 - t_1_5 + 500.000000 u_1_3_5 - 6.000000 s_1_5 + 6.000000 s_1_7 > 13.371122
t_1_5 - t_1_3 - 500.000000 u_1_3_5 > -472.720600
t_2_3 - t_2_5 + 500.000000 u_2_3_5 - 6.000000 s_2_5 + 6.000000 s_2_7 > 12.547000
t_2_5 - t_2_3 - 500.000000 u_2_3_5 > -475.044000
t_1_3 - t_1_6 + 500.000000 u_1_3_6 > 30.504578
t_1_6 - t_1_3 - 500.000000 u_1_3_6 > -472.720600
t_2_3 - t_2_6 + 500.000000 u_2_3_6 > 48.198000
t_2_6 - t_2_3 - 500.000000 u_2_3_6 > -475.044000
t_1_3 - t_1_7 - 500.000000 s_1_7 > -456.692600
t_1_3 - t_2_7 - 500.000000 s_2_7 > -482.597000
t_2_3 - t_1_7 - 500.000000 s_1_7 > -456.692600
t_2_3 - t_2_7 - 500.000000 s_2_7 > -482.597000
t_1_8 - t_1_3 - 500.000000 s_1_3 > -469.720600
t_1_8 - t_2_3 - 500.000000 s_2_3 > -472.044000
t_2_8 - t_1_3 - 500.000000 s_1_3 > -469.720600
t_2_8 - t_2_3 - 500.000000 s_2_3 > -472.044000
t_1_4 - t_1_1 + 500.000000 u_1_4_1 - 3.000000 s_1_1 + 3.000000 s_1_6 > 15.138522
t_1_1 - t_1_4 - 500.000000 u_1_4_1 > -485.843000
t_2_4 - t_2_1 + 500.000000 u_2_4_1 - 3.000000 s_2_1 + 3.000000 s_2_6 > 13.066000
t_2_1 - t_2_4 - 500.000000 u_2_4_1 > -482.891000
t_1_4 - t_1_2 + 500.000000 u_1_4_2 - 3.000000 s_1_2 + 3.000000 s_1_7 > 17.261822
t_1_2 - t_1_4 - 500.000000 u_1_4_2 > -485.843000
t_2_4 - t_2_2 + 500.000000 u_2_4_2 - 3.000000 s_2_2 + 3.000000 s_2_7 > 18.547000
t_2_2 - t_2_4 - 500.000000 u_2_4_2 > -482.891000
t_1_4 - t_1_3 - 500.000000 s_1_3 > -469.720600
t_1_4 - t_2_3 - 500.000000 s_2_3 > -472.044000
t_2_4 - t_1_3 - 500.000000 s_1_3 > -469.720600
t_2_4 - t_2_3 - 500.000000 s_2_3 > -472.044000
t_1_4 - t_1_5 + 500.000000 u_1_4_5 - 6.000000 s_1_5 + 6.000000 s_1_7 > 13.371122
t_1_5 - t_1_4 - 500.000000 u_1_4_5 > -485.843000
t_2_4 - t_2_5 + 500.000000 u_2_4_5 - 6.000000 s_2_5 + 6.000000 s_2_7 > 12.547000
t_2_5 - t_2_4 - 500.000000 u_2_4_5 > -482.891000
t_1_4 - t_1_6 + 500.000000 u_1_4_6 > 30.504578
t_1_6 - t_1_4 - 500.000000 u_1_4_6 > -485.843000
t_2_4 - t_2_6 + 500.000000 u_2_4_6 > 48.198000
t_2_6 - t_2_4 - 500.000000 u_2_4_6 > -482.891000
t_1_4 - t_1_7 - 500.000000 s_1_7 > -456.692600
t_1_4 - t_2_7 - 500.000000 s_2_7 > -482.597000
t_2_4 - t_1_7 - 500.000000 s_1_7 > -456.692600
t_2_4 - t_2_7 - 500.000000 s_2_7 > -482.597000
t_1_8 - t_1_4 - 500.000000 s_1_4 > -479.843000
t_1_8 - t_2_4 - 500.000000 s_2_4 > -476.891000
t_2_8 - t_1_4 - 500.000000 s_1_4 > -479.843000
t_2_8 - t_2_4 - 500.000000 s_2_4 > -476.891000
t_1_5 - t_1_1 + 500.000000 u_1_5_1 - 3.000000 s_1_1 + 3.000000 s_1_6 > 15.138522
t_1_1 - t_1_5 - 500.000000 u_1_5_1 > -486.628878
t_2_5 - t_2_1 + 500.000000 u_2_5_1 - 3.000000 s_2_1 + 3.000000 s_2_6 > 13.066000
t_2_1 - t_2_5 - 500.000000 u_2_5_1 > -487.453000
t_1_5 - t_1_2 + 500.000000 u_1_5_2 - 3.000000 s_1_2 + 3.000000 s_1_7 > 17.261822
t_1_2 - t_1_5 - 500.000000 u_1_5_2 > -486.628878
t_2_5 - t_2_2 + 500.000000 u_2_5_2 - 3.000000 s_2_2 + 3.000000 s_2_7 > 18.547000
t_2_2 - t_2_5 - 500.000000 u_2_5_2 > -487.453000
t_1_5 - t_1_3 + 500.000000 u_1_5_3 - 3.000000 s_1_3 + 3.000000 s_1_7 > 27.279400
t_1_3 - t_1_5 - 500.000000 u_1_5_3 > -486.628878
t_2_5 - t_2_3 + 500.000000 u_2_5_3 - 3.000000 s_2_3 + 3.000000 s_2_7 > 24.956000
t_2_3 - t_2_5 - 500.000000 u_2_5_3 > -487.453000
t_1_5 - t_1_4 + 500.000000 u_1_5_4 - 6.000000 s_1_4 + 6.000000 s_1_3 > 14.157000
t_1_4 - t_1_5 - 500.000000 u_1_5_4 > -486.628878
t_2_5 - t_2_4 + 500.000000 u_2_5_4 - 6.000000 s_2_4 + 6.000000 s_2_3 > 17.109000
t_2_4 - t_2_5 - 500.000000 u_2_5_4 > -487.453000
t_1_5 - t_1_6 - 500.000000 s_1_6 > -466.495422
t_1_5 - t_2_6 - 500.000000 s_2_6 > -448.802000
t_2_5 - t_1_6 - 500.000000 s_1_6 > -466.495422
t_2_5 - t_2_6 - 500.000000 s_2_6 > -448.802000
t_1_5 - t_1_7 - 500.000000 s_1_7 > -456.692600
t_1_5 - t_2_7 - 500.000000 s_2_7 > -482.597000
t_2_5 - t_1_7 - 500.000000 s_1_7 > -456.692600
t_2_5 - t_2_7 - 500.000000 s_2_7 > -482.597000
t_1_8 - t_1_5 - 500.000000 s_1_5 > -480.628878
t_1_8 - t_2_5 - 500.000000 s_2_5 > -481.453000
t_2_8 - t_1_5 - 500.000000 s_1_5 > -480.628878
t_2_8 - t_2_5 - 500.000000 s_2_5 > -481.453000
t_1_1 - t_1_6 - 500.000000 s_1_6 > -466.495422
t_1_1 - t_2_6 - 500.000000 s_2_6 > -448.802000
t_2_1 - t_1_6 - 500.000000 s_1_6 > -466.495422
t_2_1 - t_2_6 - 500.000000 s_2_6 > -448.802000
t_1_6 - t_1_2 + 500.000000 u_1_6_2 - 3.000000 s_1_2 + 3.000000 s_1_7 > 17.261822
t_1_2 - t_1_6 - 500.000000 u_1_6_2 > -469.495422
t_2_6 - t_2_2 + 500.000000 u_2_6_2 - 3.000000 s_2_2 + 3.000000 s_2_7 > 18.547000
t_2_2 - t_2_6 - 500.000000 u_2_6_2 > -451.802000
t_1_6 - t_1_3 + 500.000000 u_1_6_3 - 3.000000 s_1_3 + 3.000000 s_1_7 > 27.279400
t_1_3 - t_1_6 - 500.000000 u_1_6_3 > -469.495422
t_2_6 - t_2_3 + 500.000000 u_2_6_3 - 3.000000 s_2_3 + 3.000000 s_2_7 > 24.956000
t_2_3 - t_2_6 - 500.000000 u_2_6_3 > -451.802000
t_1_6 - t_1_4 + 500.000000 u_1_6_4 - 6.000000 s_1_4 + 6.000000 s_1_3 > 14.157000
t_1_4 - t_1_6 - 500.000000 u_1_6_4 > -469.495422
t_2_6 - t_2_4 + 500.000000 u_2_6_4 - 6.000000 s_2_4 + 6.000000 s_2_3 > 17.109000
t_2_4 - t_2_6 - 500.000000 u_2_6_4 > -451.802000
t_1_5 - t_1_6 - 500.000000 s_1_6 > -466.495422
t_1_5 - t_2_6 - 500.000000 s_2_6 > -448.802000
t_2_5 - t_1_6 - 500.000000 s_1_6 > -466.495422
t_2_5 - t_2_6 - 500.000000 s_2_6 > -448.802000
t_1_6 - t_1_7 + 500.000000 u_1_6_7 > 40.307400
t_1_7 - t_1_6 - 500.000000 u_1_6_7 > -469.495422
t_2_6 - t_2_7 + 500.000000 u_2_6_7 > 14.403000
t_2_7 - t_2_6 - 500.000000 u_2_6_7 > -451.802000
t_1_7 - t_1_1 + 500.000000 u_1_7_1 - 3.000000 s_1_1 + 3.000000 s_1_6 > 15.138522
t_1_1 - t_1_7 - 500.000000 u_1_7_1 > -459.692600
t_2_7 - t_2_1 + 500.000000 u_2_7_1 - 3.000000 s_2_1 + 3.000000 s_2_6 > 13.066000
t_2_1 - t_2_7 - 500.000000 u_2_7_1 > -485.597000
t_1_2 - t_1_7 - 500.000000 s_1_7 > -456.692600
t_1_2 - t_2_7 - 500.000000 s_2_7 > -482.597000
t_2_2 - t_1_7 - 500.000000 s_1_7 > -456.692600
t_2_2 - t_2_7 - 500.000000 s_2_7 > -482.597000
t_1_3 - t_1_7 - 500.000000 s_1_7 > -456.692600
t_1_3 - t_2_7 - 500.000000 s_2_7 > -482.597000
t_2_3 - t_1_7 - 500.000000 s_1_7 > -456.692600
t_2_3 - t_2_7 - 500.000000 s_2_7 > -482.597000
t_1_4 - t_1_7 - 500.000000 s_1_7 > -456.692600
t_1_4 - t_2_7 - 500.000000 s_2_7 > -482.597000
t_2_4 - t_1_7 - 500.000000 s_1_7 > -456.692600
t_2_4 - t_2_7 - 500.000000 s_2_7 > -482.597000
t_1_5 - t_1_7 - 500.000000 s_1_7 > -456.692600
t_1_5 - t_2_7 - 500.000000 s_2_7 > -482.597000
t_2_5 - t_1_7 - 500.000000 s_1_7 > -456.692600
t_2_5 - t_2_7 - 500.000000 s_2_7 > -482.597000
t_1_7 - t_1_6 + 500.000000 u_1_7_6 > 30.504578
t_1_6 - t_1_7 - 500.000000 u_1_7_6 > -459.692600
t_2_7 - t_2_6 + 500.000000 u_2_7_6 > 48.198000
t_2_6 - t_2_7 - 500.000000 u_2_7_6 > -485.597000
t_1_8 - t_1_1 - 500.000000 s_1_1 > -481.861478
t_1_8 - t_2_1 - 500.000000 s_2_1 > -483.934000
t_2_8 - t_1_1 - 500.000000 s_1_1 > -481.861478
t_2_8 - t_2_1 - 500.000000 s_2_1 > -483.934000
t_1_8 - t_1_2 - 500.000000 s_1_2 > -479.738178
t_1_8 - t_2_2 - 500.000000 s_2_2 > -478.453000
t_2_8 - t_1_2 - 500.000000 s_1_2 > -479.738178
t_2_8 - t_2_2 - 500.000000 s_2_2 > -478.453000
t_1_8 - t_1_3 - 500.000000 s_1_3 > -469.720600
t_1_8 - t_2_3 - 500.000000 s_2_3 > -472.044000
t_2_8 - t_1_3 - 500.000000 s_1_3 > -469.720600
t_2_8 - t_2_3 - 500.000000 s_2_3 > -472.044000
t_1_8 - t_1_4 - 500.000000 s_1_4 > -479.843000
t_1_8 - t_2_4 - 500.000000 s_2_4 > -476.891000
t_2_8 - t_1_4 - 500.000000 s_1_4 > -479.843000
t_2_8 - t_2_4 - 500.000000 s_2_4 > -476.891000
t_1_8 - t_1_5 - 500.000000 s_1_5 > -480.628878
t_1_8 - t_2_5 - 500.000000 s_2_5 > -481.453000
t_2_8 - t_1_5 - 500.000000 s_1_5 > -480.628878
t_2_8 - t_2_5 - 500.000000 s_2_5 > -481.453000
Binary
s_1_1
s_2_1
s_1_2
s_2_2
s_1_3
s_2_3
s_1_4
s_2_4
s_1_5
s_2_5
s_1_6
s_2_6
s_1_7
s_2_7
s_1_8
s_2_8
u_1_1_2
u_2_1_2
u_1_1_3
u_2_1_3
u_1_1_4
u_2_1_4
u_1_1_5
u_2_1_5
u_1_1_7
u_2_1_7
u_1_2_1
u_2_2_1
u_1_2_3
u_2_2_3
u_1_2_4
u_2_2_4
u_1_2_5
u_2_2_5
u_1_2_6
u_2_2_6
u_1_3_1
u_2_3_1
u_1_3_2
u_2_3_2
u_1_3_5
u_2_3_5
u_1_3_6
u_2_3_6
u_1_4_1
u_2_4_1
u_1_4_2
u_2_4_2
u_1_4_5
u_2_4_5
u_1_4_6
u_2_4_6
u_1_5_1
u_2_5_1
u_1_5_2
u_2_5_2
u_1_5_3
u_2_5_3
u_1_5_4
u_2_5_4
u_1_6_2
u_2_6_2
u_1_6_3
u_2_6_3
u_1_6_4
u_2_6_4
u_1_6_7
u_2_6_7
u_1_7_1
u_2_7_1
u_1_7_6
u_2_7_6

End
